10	5
0	3	3	2	1
1	3	6	4	5
2	1	5
3	3	5	10	6
4	3	10	7	8
5	2	8	7
6	0
7	1	9
8	1	11
9	1	11
10	1	11
11	0
0	0	0	0	0	0	0
1	1	4	0	0	0	3
2	7	0	0	0	0	2
3	7	0	2	2	0	4
4	3	0	5	1	0	4
5	9	1	1	0	2	0
6	5	4	4	0	0	5
7	9	0	0	0	3	5
8	10	0	1	4	2	0
9	2	0	0	4	2	2
10	2	0	2	0	4	0
11	0	0	0	0	0	0
4	6	5	6	6
